letting n =  10
letting blocks =  [[1, 2], [1, 3], [1, 9], [2, 1], [3, 1], [3, 8], [4, 2], [4, 10], [5, 1], [5, 7], [5, 9], [6, 3], [6, 6], [7, 7], [7, 8], [8, 3], [8, 4], [8, 5], [8, 6], [9, 4], [9, 7], [9, 8], [9, 10], [10, 4], [10, 5], [10, 10]]
